1816
87 85 71 72 77 73 91 13 50 86 29 59 78 84 2 1 40 16 61 25 49 96 94 67 3 34 14 65 20 56 38 60 95 97 51 31 11 23 66 33 39 47 42 63 48 41 35 12 52 6 80 19 70 44 43 93 8 92 46 55 26 32 28 75 21 64 4 88 74 81 57 53 62 82 83 5 24 68 76 36 90 98 27 18 9 7 17 79 22 89 69 30 45 54 99 58 37 15 10 
